sat
(
  (define-fun C3_VM1 () Int
    0)
  (define-fun C3_VM3 () Int
    1)
  (define-fun C1_VM3 () Int
    0)
  (define-fun VM1Type () Int
    26)
  (define-fun C4_VM2 () Int
    0)
  (define-fun C2_VM5 () Int
    0)
  (define-fun MemProv5 () Int
    3750)
  (define-fun PriceProv2 () Int
    128)
  (define-fun VM3Type () Int
    27)
  (define-fun C5_VM5 () Int
    0)
  (define-fun C2_VM2 () Int
    1)
  (define-fun C3_VM5 () Int
    0)
  (define-fun C2_VM4 () Int
    0)
  (define-fun C3_VM2 () Int
    0)
  (define-fun MemProv4 () Int
    7500)
  (define-fun StorageProv2 () Int
    2000)
  (define-fun StorageProv1 () Int
    2000)
  (define-fun VM5Type () Int
    37)
  (define-fun C4_VM1 () Int
    0)
  (define-fun StorageProv4 () Int
    2000)
  (define-fun StorageProv5 () Int
    2000)
  (define-fun PriceProv3 () Int
    252)
  (define-fun ProcProv5 () Int
    2)
  (define-fun PriceProv4 () Int
    252)
  (define-fun MemProv2 () Int
    3750)
  (define-fun C2_VM1 () Int
    0)
  (define-fun PriceProv1 () Int
    252)
  (define-fun ProcProv4 () Int
    4)
  (define-fun C1_VM5 () Int
    0)
  (define-fun C4_VM5 () Int
    1)
  (define-fun C5_VM4 () Int
    1)
  (define-fun ProcProv3 () Int
    4)
  (define-fun C4_VM4 () Int
    0)
  (define-fun C5_VM2 () Int
    0)
  (define-fun ProcProv1 () Int
    4)
  (define-fun C1_VM2 () Int
    0)
  (define-fun VM4Type () Int
    26)
  (define-fun PriceProv5 () Int
    128)
  (define-fun StorageProv3 () Int
    2000)
  (define-fun MemProv3 () Int
    7500)
  (define-fun C1_VM4 () Int
    0)
  (define-fun MemProv1 () Int
    7500)
  (define-fun C4_VM3 () Int
    0)
  (define-fun C3_VM4 () Int
    0)
  (define-fun ProcProv2 () Int
    2)
  (define-fun C5_VM3 () Int
    0)
  (define-fun VM2Type () Int
    37)
  (define-fun C2_VM3 () Int
    0)
  (define-fun C5_VM1 () Int
    0)
  (define-fun C1_VM1 () Int
    1)
)
(objectives
 ( 12)
 ((+ 0 PriceProv1 PriceProv2 PriceProv3 PriceProv4 PriceProv5) 1012)
)
(:added-eqs                   51170
 :arith-eq-adapter            13275
 :arith-bound-propagations-lp 427
 :arith-conflicts             15
 :arith-diseq                 56715
 :arith-fixed-eqs             614
 :arith-lower                 55520
 :arith-make-feasible         11786
 :arith-max-columns           134
 :arith-max-rows              17
 :arith-upper                 69561
 :binary-propagations         333509
 :conflicts                   1314
 :decisions                   36301
 :del-clause                  7845
 :final-checks                23
 :max-memory                  42.78
 :maxsat-cores                6
 :memory                      42.78
 :minimized-lits              12340
 :mk-bool-var                 26713
 :mk-clause                   9205
 :mk-clause-binary            3783
 :num-allocs                  25771378
 :num-checks                  36
 :pb-conflicts                862
 :pb-predicates               384
 :pb-propagations             1057
 :pb-resolves                 861
 :propagations                425351
 :restarts                    7
 :rlimit-count                3026642
 :solve-eqs-elim-vars         2
 :solve-eqs-steps             16
 :time                        0.17
 :total-time                  0.18)
